Minimize
	value: tt

Subject to
tt + 1000 s_1_1 > 0.0
tt - t_1_1 - 1000.701282 s_1_1  + 0.350641 s_1_8  + 0.350641 s_1_7  > -974.638389
tt + 1000 s_2_1 > 0.0
tt - t_2_1 - 1001.074116 s_2_1  + 0.537058 s_2_8  + 0.537058 s_2_7  > -962.005183
tt + 1000 s_1_2 > 0.0
tt - t_1_2 - 1000.350641 s_1_2  + 0.350641 s_1_7  > -974.725200
tt + 1000 s_2_2 > 0.0
tt - t_2_2 - 1000.537058 s_2_2  + 0.537058 s_2_7  > -962.500833
tt + 1000 s_1_3 > 0.0
tt - t_1_3 - 1000.701282 s_1_3  + 0.350641 s_1_8  + 0.350641 s_1_7  > -999.267322
tt + 1000 s_2_3 > 0.0
tt - t_2_3 - 1001.074116 s_2_3  + 0.537058 s_2_8  + 0.537058 s_2_7  > -995.617500
tt + 1000 s_1_4 > 0.0
tt - t_1_4 - 1000.350641 s_1_4  + 0.350641 s_1_7  > -998.758744
tt + 1000 s_2_4 > 0.0
tt - t_2_4 - 1000.537058 s_2_4  + 0.537058 s_2_7  > -993.120781
tt + 1000 s_1_5 > 0.0
tt - t_1_5 - 1000.350641 s_1_5  + 0.350641 s_1_8  > -987.815633
tt + 1000 s_2_5 > 0.0
tt - t_2_5 - 1000.537058 s_2_5  + 0.537058 s_2_8  > -981.451840
tt + 1000 s_1_6 > 0.0
tt - t_1_6 - 1002.103847 s_1_6  + 0.350641 s_1_1  + 0.350641 s_1_5  + 0.350641 s_1_3  + 0.350641 s_1_7  + 0.350641 s_1_4  + 0.350641 s_1_2  > -999.106400
tt + 1000 s_2_6 > 0.0
tt - t_2_6 - 1003.222348 s_2_6  + 0.537058 s_2_1  + 0.537058 s_2_5  + 0.537058 s_2_3  + 0.537058 s_2_7  + 0.537058 s_2_4  + 0.537058 s_2_2  > -997.593500
tt + 1000 s_1_7 > 0.0
tt - t_1_7 - 1000.000000 s_1_7  > -958.157100
tt + 1000 s_2_7 > 0.0
tt - t_2_7 - 1000.000000 s_2_7  > -909.846475
tt + 1000 s_1_8 > 0.0
tt - t_1_8 - 1000.000000 s_1_8  > -974.404900
tt + 1000 s_2_8 > 0.0
tt - t_2_8 - 1000.000000 s_2_8  > -968.984800
s_1_1 + s_2_1 = 1
s_1_2 + s_2_2 = 1
s_1_3 + s_2_3 = 1
s_1_4 + s_2_4 = 1
s_1_5 + s_2_5 = 1
s_1_6 + s_2_6 = 1
s_1_7 + s_2_7 = 1
s_1_8 + s_2_8 = 1
s_1_1 + s_1_2 + 1000 r_1_1_2 >= 2
- s_1_1 - s_1_2 - 1000 r_1_1_2 >= -1001
t_1_1 - t_1_2 - 1000.000000 u_1_1_2 - 0.350641 s_1_2  + 0.350641 s_1_7  + 2000.000000 r_1_1_2 > -974.725200
s_2_1 + s_2_2 + 1000 r_2_1_2 >= 2
- s_2_1 - s_2_2 - 1000 r_2_1_2 >= -1001
t_2_1 - t_2_2 - 1000.000000 u_2_1_2 - 0.537058 s_2_2  + 0.537058 s_2_7  + 2000.000000 r_2_1_2 > -962.500833
s_1_1 + s_1_3 + 1000 r_1_1_3 >= 2
- s_1_1 - s_1_3 - 1000 r_1_1_3 >= -1001
t_1_1 - t_1_3 - 1000.000000 u_1_1_3 - 0.701282 s_1_3  + 0.350641 s_1_8  + 0.350641 s_1_7  + 2000.000000 r_1_1_3 > -999.267322
s_2_1 + s_2_3 + 1000 r_2_1_3 >= 2
- s_2_1 - s_2_3 - 1000 r_2_1_3 >= -1001
t_2_1 - t_2_3 - 1000.000000 u_2_1_3 - 1.074116 s_2_3  + 0.537058 s_2_8  + 0.537058 s_2_7  + 2000.000000 r_2_1_3 > -995.617500
s_1_1 + s_1_4 + 1000 r_1_1_4 >= 2
- s_1_1 - s_1_4 - 1000 r_1_1_4 >= -1001
t_1_1 - t_1_4 - 1000.000000 u_1_1_4 - 0.350641 s_1_4  + 0.350641 s_1_7  + 2000.000000 r_1_1_4 > -998.758744
s_2_1 + s_2_4 + 1000 r_2_1_4 >= 2
- s_2_1 - s_2_4 - 1000 r_2_1_4 >= -1001
t_2_1 - t_2_4 - 1000.000000 u_2_1_4 - 0.537058 s_2_4  + 0.537058 s_2_7  + 2000.000000 r_2_1_4 > -993.120781
s_1_1 + s_1_5 + 1000 r_1_1_5 >= 2
- s_1_1 - s_1_5 - 1000 r_1_1_5 >= -1001
t_1_1 - t_1_5 - 1000.000000 u_1_1_5 - 0.350641 s_1_5  + 0.350641 s_1_8  + 2000.000000 r_1_1_5 > -987.815633
s_2_1 + s_2_5 + 1000 r_2_1_5 >= 2
- s_2_1 - s_2_5 - 1000 r_2_1_5 >= -1001
t_2_1 - t_2_5 - 1000.000000 u_2_1_5 - 0.537058 s_2_5  + 0.537058 s_2_8  + 2000.000000 r_2_1_5 > -981.451840
t_1_6 - t_1_1 - 1000.701282 s_1_1  + 0.350641 s_1_8  + 0.350641 s_1_7  > -974.638389
t_1_6 - t_2_1 - 1001.074116 s_2_1  + 0.537058 s_2_8  + 0.537058 s_2_7  > -962.005183
t_2_6 - t_1_1 - 1000.701282 s_1_1  + 0.350641 s_1_8  + 0.350641 s_1_7  > -974.638389
t_2_6 - t_2_1 - 1001.074116 s_2_1  + 0.537058 s_2_8  + 0.537058 s_2_7  > -962.005183
t_1_1 - t_1_7 - 1000.000000 s_1_7  > -958.157100
t_1_1 - t_2_7 - 1000.000000 s_2_7  > -909.846475
t_2_1 - t_1_7 - 1000.000000 s_1_7  > -958.157100
t_2_1 - t_2_7 - 1000.000000 s_2_7  > -909.846475
t_1_1 - t_1_8 - 1000.000000 s_1_8  > -974.404900
t_1_1 - t_2_8 - 1000.000000 s_2_8  > -968.984800
t_2_1 - t_1_8 - 1000.000000 s_1_8  > -974.404900
t_2_1 - t_2_8 - 1000.000000 s_2_8  > -968.984800
s_1_2 + s_1_1 + 1000 r_1_1_2 >= 2
- s_1_2 - s_1_1 - 1000 r_1_1_2 >= -1001
t_1_2 - t_1_1 + 1000.000000 u_1_1_2 - 0.701282 s_1_1  + 0.350641 s_1_8  + 0.350641 s_1_7  + 2000.000000 r_1_1_2 > 25.361611
s_2_2 + s_2_1 + 1000 r_2_1_2 >= 2
- s_2_2 - s_2_1 - 1000 r_2_1_2 >= -1001
t_2_2 - t_2_1 + 1000.000000 u_2_1_2 - 1.074116 s_2_1  + 0.537058 s_2_8  + 0.537058 s_2_7  + 2000.000000 r_2_1_2 > 37.994817
s_1_2 + s_1_3 + 1000 r_1_2_3 >= 2
- s_1_2 - s_1_3 - 1000 r_1_2_3 >= -1001
t_1_2 - t_1_3 - 1000.000000 u_1_2_3 - 0.701282 s_1_3  + 0.350641 s_1_8  + 0.350641 s_1_7  + 2000.000000 r_1_2_3 > -999.267322
s_2_2 + s_2_3 + 1000 r_2_2_3 >= 2
- s_2_2 - s_2_3 - 1000 r_2_2_3 >= -1001
t_2_2 - t_2_3 - 1000.000000 u_2_2_3 - 1.074116 s_2_3  + 0.537058 s_2_8  + 0.537058 s_2_7  + 2000.000000 r_2_2_3 > -995.617500
s_1_2 + s_1_4 + 1000 r_1_2_4 >= 2
- s_1_2 - s_1_4 - 1000 r_1_2_4 >= -1001
t_1_2 - t_1_4 - 1000.000000 u_1_2_4 - 0.350641 s_1_4  + 0.350641 s_1_7  + 2000.000000 r_1_2_4 > -998.758744
s_2_2 + s_2_4 + 1000 r_2_2_4 >= 2
- s_2_2 - s_2_4 - 1000 r_2_2_4 >= -1001
t_2_2 - t_2_4 - 1000.000000 u_2_2_4 - 0.537058 s_2_4  + 0.537058 s_2_7  + 2000.000000 r_2_2_4 > -993.120781
s_1_2 + s_1_5 + 1000 r_1_2_5 >= 2
- s_1_2 - s_1_5 - 1000 r_1_2_5 >= -1001
t_1_2 - t_1_5 - 1000.000000 u_1_2_5 - 0.350641 s_1_5  + 0.350641 s_1_8  + 2000.000000 r_1_2_5 > -987.815633
s_2_2 + s_2_5 + 1000 r_2_2_5 >= 2
- s_2_2 - s_2_5 - 1000 r_2_2_5 >= -1001
t_2_2 - t_2_5 - 1000.000000 u_2_2_5 - 0.537058 s_2_5  + 0.537058 s_2_8  + 2000.000000 r_2_2_5 > -981.451840
t_1_6 - t_1_2 - 1000.350641 s_1_2  + 0.350641 s_1_7  > -974.725200
t_1_6 - t_2_2 - 1000.537058 s_2_2  + 0.537058 s_2_7  > -962.500833
t_2_6 - t_1_2 - 1000.350641 s_1_2  + 0.350641 s_1_7  > -974.725200
t_2_6 - t_2_2 - 1000.537058 s_2_2  + 0.537058 s_2_7  > -962.500833
t_1_2 - t_1_7 - 1000.000000 s_1_7  > -958.157100
t_1_2 - t_2_7 - 1000.000000 s_2_7  > -909.846475
t_2_2 - t_1_7 - 1000.000000 s_1_7  > -958.157100
t_2_2 - t_2_7 - 1000.000000 s_2_7  > -909.846475
s_1_2 + s_1_8 + 1000 r_1_2_8 >= 2
- s_1_2 - s_1_8 - 1000 r_1_2_8 >= -1001
t_1_2 - t_1_8 - 1000.000000 u_1_2_8 - 0.000000 s_1_8  + 2000.000000 r_1_2_8 > -974.404900
s_2_2 + s_2_8 + 1000 r_2_2_8 >= 2
- s_2_2 - s_2_8 - 1000 r_2_2_8 >= -1001
t_2_2 - t_2_8 - 1000.000000 u_2_2_8 - 0.000000 s_2_8  + 2000.000000 r_2_2_8 > -968.984800
s_1_3 + s_1_1 + 1000 r_1_1_3 >= 2
- s_1_3 - s_1_1 - 1000 r_1_1_3 >= -1001
t_1_3 - t_1_1 + 1000.000000 u_1_1_3 - 0.701282 s_1_1  + 0.350641 s_1_8  + 0.350641 s_1_7  + 2000.000000 r_1_1_3 > 25.361611
s_2_3 + s_2_1 + 1000 r_2_1_3 >= 2
- s_2_3 - s_2_1 - 1000 r_2_1_3 >= -1001
t_2_3 - t_2_1 + 1000.000000 u_2_1_3 - 1.074116 s_2_1  + 0.537058 s_2_8  + 0.537058 s_2_7  + 2000.000000 r_2_1_3 > 37.994817
s_1_3 + s_1_2 + 1000 r_1_2_3 >= 2
- s_1_3 - s_1_2 - 1000 r_1_2_3 >= -1001
t_1_3 - t_1_2 + 1000.000000 u_1_2_3 - 0.350641 s_1_2  + 0.350641 s_1_7  + 2000.000000 r_1_2_3 > 25.274800
s_2_3 + s_2_2 + 1000 r_2_2_3 >= 2
- s_2_3 - s_2_2 - 1000 r_2_2_3 >= -1001
t_2_3 - t_2_2 + 1000.000000 u_2_2_3 - 0.537058 s_2_2  + 0.537058 s_2_7  + 2000.000000 r_2_2_3 > 37.499167
s_1_3 + s_1_4 + 1000 r_1_3_4 >= 2
- s_1_3 - s_1_4 - 1000 r_1_3_4 >= -1001
t_1_3 - t_1_4 - 1000.000000 u_1_3_4 - 0.350641 s_1_4  + 0.350641 s_1_7  + 2000.000000 r_1_3_4 > -998.758744
s_2_3 + s_2_4 + 1000 r_2_3_4 >= 2
- s_2_3 - s_2_4 - 1000 r_2_3_4 >= -1001
t_2_3 - t_2_4 - 1000.000000 u_2_3_4 - 0.537058 s_2_4  + 0.537058 s_2_7  + 2000.000000 r_2_3_4 > -993.120781
s_1_3 + s_1_5 + 1000 r_1_3_5 >= 2
- s_1_3 - s_1_5 - 1000 r_1_3_5 >= -1001
t_1_3 - t_1_5 - 1000.000000 u_1_3_5 - 0.350641 s_1_5  + 0.350641 s_1_8  + 2000.000000 r_1_3_5 > -987.815633
s_2_3 + s_2_5 + 1000 r_2_3_5 >= 2
- s_2_3 - s_2_5 - 1000 r_2_3_5 >= -1001
t_2_3 - t_2_5 - 1000.000000 u_2_3_5 - 0.537058 s_2_5  + 0.537058 s_2_8  + 2000.000000 r_2_3_5 > -981.451840
t_1_6 - t_1_3 - 1000.701282 s_1_3  + 0.350641 s_1_8  + 0.350641 s_1_7  > -999.267322
t_1_6 - t_2_3 - 1001.074116 s_2_3  + 0.537058 s_2_8  + 0.537058 s_2_7  > -995.617500
t_2_6 - t_1_3 - 1000.701282 s_1_3  + 0.350641 s_1_8  + 0.350641 s_1_7  > -999.267322
t_2_6 - t_2_3 - 1001.074116 s_2_3  + 0.537058 s_2_8  + 0.537058 s_2_7  > -995.617500
t_1_3 - t_1_7 - 1000.000000 s_1_7  > -958.157100
t_1_3 - t_2_7 - 1000.000000 s_2_7  > -909.846475
t_2_3 - t_1_7 - 1000.000000 s_1_7  > -958.157100
t_2_3 - t_2_7 - 1000.000000 s_2_7  > -909.846475
t_1_3 - t_1_8 - 1000.000000 s_1_8  > -974.404900
t_1_3 - t_2_8 - 1000.000000 s_2_8  > -968.984800
t_2_3 - t_1_8 - 1000.000000 s_1_8  > -974.404900
t_2_3 - t_2_8 - 1000.000000 s_2_8  > -968.984800
s_1_4 + s_1_1 + 1000 r_1_1_4 >= 2
- s_1_4 - s_1_1 - 1000 r_1_1_4 >= -1001
t_1_4 - t_1_1 + 1000.000000 u_1_1_4 - 0.701282 s_1_1  + 0.350641 s_1_8  + 0.350641 s_1_7  + 2000.000000 r_1_1_4 > 25.361611
s_2_4 + s_2_1 + 1000 r_2_1_4 >= 2
- s_2_4 - s_2_1 - 1000 r_2_1_4 >= -1001
t_2_4 - t_2_1 + 1000.000000 u_2_1_4 - 1.074116 s_2_1  + 0.537058 s_2_8  + 0.537058 s_2_7  + 2000.000000 r_2_1_4 > 37.994817
s_1_4 + s_1_2 + 1000 r_1_2_4 >= 2
- s_1_4 - s_1_2 - 1000 r_1_2_4 >= -1001
t_1_4 - t_1_2 + 1000.000000 u_1_2_4 - 0.350641 s_1_2  + 0.350641 s_1_7  + 2000.000000 r_1_2_4 > 25.274800
s_2_4 + s_2_2 + 1000 r_2_2_4 >= 2
- s_2_4 - s_2_2 - 1000 r_2_2_4 >= -1001
t_2_4 - t_2_2 + 1000.000000 u_2_2_4 - 0.537058 s_2_2  + 0.537058 s_2_7  + 2000.000000 r_2_2_4 > 37.499167
s_1_4 + s_1_3 + 1000 r_1_3_4 >= 2
- s_1_4 - s_1_3 - 1000 r_1_3_4 >= -1001
t_1_4 - t_1_3 + 1000.000000 u_1_3_4 - 0.701282 s_1_3  + 0.350641 s_1_8  + 0.350641 s_1_7  + 2000.000000 r_1_3_4 > 0.732678
s_2_4 + s_2_3 + 1000 r_2_3_4 >= 2
- s_2_4 - s_2_3 - 1000 r_2_3_4 >= -1001
t_2_4 - t_2_3 + 1000.000000 u_2_3_4 - 1.074116 s_2_3  + 0.537058 s_2_8  + 0.537058 s_2_7  + 2000.000000 r_2_3_4 > 4.382500
s_1_4 + s_1_5 + 1000 r_1_4_5 >= 2
- s_1_4 - s_1_5 - 1000 r_1_4_5 >= -1001
t_1_4 - t_1_5 - 1000.000000 u_1_4_5 - 0.350641 s_1_5  + 0.350641 s_1_8  + 2000.000000 r_1_4_5 > -987.815633
s_2_4 + s_2_5 + 1000 r_2_4_5 >= 2
- s_2_4 - s_2_5 - 1000 r_2_4_5 >= -1001
t_2_4 - t_2_5 - 1000.000000 u_2_4_5 - 0.537058 s_2_5  + 0.537058 s_2_8  + 2000.000000 r_2_4_5 > -981.451840
t_1_6 - t_1_4 - 1000.350641 s_1_4  + 0.350641 s_1_7  > -998.758744
t_1_6 - t_2_4 - 1000.537058 s_2_4  + 0.537058 s_2_7  > -993.120781
t_2_6 - t_1_4 - 1000.350641 s_1_4  + 0.350641 s_1_7  > -998.758744
t_2_6 - t_2_4 - 1000.537058 s_2_4  + 0.537058 s_2_7  > -993.120781
t_1_4 - t_1_7 - 1000.000000 s_1_7  > -958.157100
t_1_4 - t_2_7 - 1000.000000 s_2_7  > -909.846475
t_2_4 - t_1_7 - 1000.000000 s_1_7  > -958.157100
t_2_4 - t_2_7 - 1000.000000 s_2_7  > -909.846475
s_1_4 + s_1_8 + 1000 r_1_4_8 >= 2
- s_1_4 - s_1_8 - 1000 r_1_4_8 >= -1001
t_1_4 - t_1_8 - 1000.000000 u_1_4_8 - 0.000000 s_1_8  + 2000.000000 r_1_4_8 > -974.404900
s_2_4 + s_2_8 + 1000 r_2_4_8 >= 2
- s_2_4 - s_2_8 - 1000 r_2_4_8 >= -1001
t_2_4 - t_2_8 - 1000.000000 u_2_4_8 - 0.000000 s_2_8  + 2000.000000 r_2_4_8 > -968.984800
s_1_5 + s_1_1 + 1000 r_1_1_5 >= 2
- s_1_5 - s_1_1 - 1000 r_1_1_5 >= -1001
t_1_5 - t_1_1 + 1000.000000 u_1_1_5 - 0.701282 s_1_1  + 0.350641 s_1_8  + 0.350641 s_1_7  + 2000.000000 r_1_1_5 > 25.361611
s_2_5 + s_2_1 + 1000 r_2_1_5 >= 2
- s_2_5 - s_2_1 - 1000 r_2_1_5 >= -1001
t_2_5 - t_2_1 + 1000.000000 u_2_1_5 - 1.074116 s_2_1  + 0.537058 s_2_8  + 0.537058 s_2_7  + 2000.000000 r_2_1_5 > 37.994817
s_1_5 + s_1_2 + 1000 r_1_2_5 >= 2
- s_1_5 - s_1_2 - 1000 r_1_2_5 >= -1001
t_1_5 - t_1_2 + 1000.000000 u_1_2_5 - 0.350641 s_1_2  + 0.350641 s_1_7  + 2000.000000 r_1_2_5 > 25.274800
s_2_5 + s_2_2 + 1000 r_2_2_5 >= 2
- s_2_5 - s_2_2 - 1000 r_2_2_5 >= -1001
t_2_5 - t_2_2 + 1000.000000 u_2_2_5 - 0.537058 s_2_2  + 0.537058 s_2_7  + 2000.000000 r_2_2_5 > 37.499167
s_1_5 + s_1_3 + 1000 r_1_3_5 >= 2
- s_1_5 - s_1_3 - 1000 r_1_3_5 >= -1001
t_1_5 - t_1_3 + 1000.000000 u_1_3_5 - 0.701282 s_1_3  + 0.350641 s_1_8  + 0.350641 s_1_7  + 2000.000000 r_1_3_5 > 0.732678
s_2_5 + s_2_3 + 1000 r_2_3_5 >= 2
- s_2_5 - s_2_3 - 1000 r_2_3_5 >= -1001
t_2_5 - t_2_3 + 1000.000000 u_2_3_5 - 1.074116 s_2_3  + 0.537058 s_2_8  + 0.537058 s_2_7  + 2000.000000 r_2_3_5 > 4.382500
s_1_5 + s_1_4 + 1000 r_1_4_5 >= 2
- s_1_5 - s_1_4 - 1000 r_1_4_5 >= -1001
t_1_5 - t_1_4 + 1000.000000 u_1_4_5 - 0.350641 s_1_4  + 0.350641 s_1_7  + 2000.000000 r_1_4_5 > 1.241256
s_2_5 + s_2_4 + 1000 r_2_4_5 >= 2
- s_2_5 - s_2_4 - 1000 r_2_4_5 >= -1001
t_2_5 - t_2_4 + 1000.000000 u_2_4_5 - 0.537058 s_2_4  + 0.537058 s_2_7  + 2000.000000 r_2_4_5 > 6.879219
t_1_6 - t_1_5 - 1000.350641 s_1_5  + 0.350641 s_1_8  > -987.815633
t_1_6 - t_2_5 - 1000.537058 s_2_5  + 0.537058 s_2_8  > -981.451840
t_2_6 - t_1_5 - 1000.350641 s_1_5  + 0.350641 s_1_8  > -987.815633
t_2_6 - t_2_5 - 1000.537058 s_2_5  + 0.537058 s_2_8  > -981.451840
s_1_5 + s_1_7 + 1000 r_1_5_7 >= 2
- s_1_5 - s_1_7 - 1000 r_1_5_7 >= -1001
t_1_5 - t_1_7 - 1000.000000 u_1_5_7 - 0.000000 s_1_7  + 2000.000000 r_1_5_7 > -958.157100
s_2_5 + s_2_7 + 1000 r_2_5_7 >= 2
- s_2_5 - s_2_7 - 1000 r_2_5_7 >= -1001
t_2_5 - t_2_7 - 1000.000000 u_2_5_7 - 0.000000 s_2_7  + 2000.000000 r_2_5_7 > -909.846475
t_1_5 - t_1_8 - 1000.000000 s_1_8  > -974.404900
t_1_5 - t_2_8 - 1000.000000 s_2_8  > -968.984800
t_2_5 - t_1_8 - 1000.000000 s_1_8  > -974.404900
t_2_5 - t_2_8 - 1000.000000 s_2_8  > -968.984800
t_1_6 - t_1_7 - 1000.000000 s_1_7  > -958.157100
t_1_6 - t_2_7 - 1000.000000 s_2_7  > -909.846475
t_2_6 - t_1_7 - 1000.000000 s_1_7  > -958.157100
t_2_6 - t_2_7 - 1000.000000 s_2_7  > -909.846475
s_1_7 + s_1_5 + 1000 r_1_5_7 >= 2
- s_1_7 - s_1_5 - 1000 r_1_5_7 >= -1001
t_1_7 - t_1_5 + 1000.000000 u_1_5_7 - 0.350641 s_1_5  + 0.350641 s_1_8  + 2000.000000 r_1_5_7 > 12.184367
s_2_7 + s_2_5 + 1000 r_2_5_7 >= 2
- s_2_7 - s_2_5 - 1000 r_2_5_7 >= -1001
t_2_7 - t_2_5 + 1000.000000 u_2_5_7 - 0.537058 s_2_5  + 0.537058 s_2_8  + 2000.000000 r_2_5_7 > 18.548160
s_1_7 + s_1_8 + 1000 r_1_7_8 >= 2
- s_1_7 - s_1_8 - 1000 r_1_7_8 >= -1001
t_1_7 - t_1_8 - 1000.000000 u_1_7_8 - 0.000000 s_1_8  + 2000.000000 r_1_7_8 > -974.404900
s_2_7 + s_2_8 + 1000 r_2_7_8 >= 2
- s_2_7 - s_2_8 - 1000 r_2_7_8 >= -1001
t_2_7 - t_2_8 - 1000.000000 u_2_7_8 - 0.000000 s_2_8  + 2000.000000 r_2_7_8 > -968.984800
s_1_8 + s_1_2 + 1000 r_1_2_8 >= 2
- s_1_8 - s_1_2 - 1000 r_1_2_8 >= -1001
t_1_8 - t_1_2 + 1000.000000 u_1_2_8 - 0.350641 s_1_2  + 0.350641 s_1_7  + 2000.000000 r_1_2_8 > 25.274800
s_2_8 + s_2_2 + 1000 r_2_2_8 >= 2
- s_2_8 - s_2_2 - 1000 r_2_2_8 >= -1001
t_2_8 - t_2_2 + 1000.000000 u_2_2_8 - 0.537058 s_2_2  + 0.537058 s_2_7  + 2000.000000 r_2_2_8 > 37.499167
s_1_8 + s_1_4 + 1000 r_1_4_8 >= 2
- s_1_8 - s_1_4 - 1000 r_1_4_8 >= -1001
t_1_8 - t_1_4 + 1000.000000 u_1_4_8 - 0.350641 s_1_4  + 0.350641 s_1_7  + 2000.000000 r_1_4_8 > 1.241256
s_2_8 + s_2_4 + 1000 r_2_4_8 >= 2
- s_2_8 - s_2_4 - 1000 r_2_4_8 >= -1001
t_2_8 - t_2_4 + 1000.000000 u_2_4_8 - 0.537058 s_2_4  + 0.537058 s_2_7  + 2000.000000 r_2_4_8 > 6.879219
s_1_8 + s_1_7 + 1000 r_1_7_8 >= 2
- s_1_8 - s_1_7 - 1000 r_1_7_8 >= -1001
t_1_8 - t_1_7 + 1000.000000 u_1_7_8 - 0.000000 s_1_7  + 2000.000000 r_1_7_8 > 41.842900
s_2_8 + s_2_7 + 1000 r_2_7_8 >= 2
- s_2_8 - s_2_7 - 1000 r_2_7_8 >= -1001
t_2_8 - t_2_7 + 1000.000000 u_2_7_8 - 0.000000 s_2_7  + 2000.000000 r_2_7_8 > 90.153525
Binary
s_1_1
s_2_1
s_1_2
s_2_2
s_1_3
s_2_3
s_1_4
s_2_4
s_1_5
s_2_5
s_1_6
s_2_6
s_1_7
s_2_7
s_1_8
s_2_8
u_1_1_2
r_1_1_2
u_2_1_2
r_2_1_2
u_1_1_3
r_1_1_3
u_2_1_3
r_2_1_3
u_1_1_4
r_1_1_4
u_2_1_4
r_2_1_4
u_1_1_5
r_1_1_5
u_2_1_5
r_2_1_5
u_1_2_3
r_1_2_3
u_2_2_3
r_2_2_3
u_1_2_4
r_1_2_4
u_2_2_4
r_2_2_4
u_1_2_5
r_1_2_5
u_2_2_5
r_2_2_5
u_1_2_8
r_1_2_8
u_2_2_8
r_2_2_8
u_1_3_4
r_1_3_4
u_2_3_4
r_2_3_4
u_1_3_5
r_1_3_5
u_2_3_5
r_2_3_5
u_1_4_5
r_1_4_5
u_2_4_5
r_2_4_5
u_1_4_8
r_1_4_8
u_2_4_8
r_2_4_8
u_1_5_7
r_1_5_7
u_2_5_7
r_2_5_7
u_1_7_8
r_1_7_8
u_2_7_8
r_2_7_8

End
